Gurobi Optimizer version 9.1.0 build v9.1.0rc0 (linux64)
Thread count: 8 physical cores, 16 logical processors, using up to 16 threads
Optimize a model with 207966 rows, 200800 columns and 1151950 nonzeros
Model fingerprint: 0x708c693e
Variable types: 0 continuous, 200800 integer (200800 binary)
Coefficient statistics:
  Matrix range     [1e+00, 1e+00]
  Objective range  [1e+01, 5e+04]
  Bounds range     [1e+00, 1e+00]
  RHS range        [1e+00, 5e+02]
Presolve removed 3050 rows and 50 columns (presolve time = 6s) ...
Presolve added 0 rows and 2950 columns
Presolve removed 50 rows and 0 columns
Presolve time: 5.74s
Presolved: 207916 rows, 203750 columns, 860850 nonzeros
Variable types: 0 continuous, 203750 integer (203750 binary)
Found heuristic solution: objective 349364.00000

Concurrent LP optimizer: primal simplex, dual simplex, and barrier
Showing barrier log only...

Root barrier log...

Ordering time: 0.07s

Barrier statistics:
 Dense cols : 400
 AA' NZ     : 6.668e+05
 Factor NZ  : 2.815e+06 (roughly 200 MBytes of memory)
 Factor Ops : 6.809e+08 (less than 1 second per iteration)
 Threads    : 6

                  Objective                Residual
Iter       Primal          Dual         Primal    Dual     Compl     Time
   0   1.96516205e+08 -2.79536202e+08  4.35e+02 2.92e+01  1.47e+04    10s
   1   1.31830997e+06 -2.69771137e+08  7.75e+00 8.18e+03  5.77e+02    10s
   2   5.72978961e+05 -1.94629288e+07  1.64e+00 2.09e+02  4.64e+01    10s
   3   3.87693242e+05 -3.42326465e+06  1.38e-01 1.26e+01  6.54e+00    11s
   4   3.58651867e+05 -5.25574708e+05  1.93e-02 2.68e+00  1.45e+00    11s
   5   3.46916361e+05  7.54538470e+04  1.29e-02 6.58e-01  4.43e-01    12s
   6   3.36130229e+05  1.84063725e+05  1.04e-02 2.99e-01  2.47e-01    12s
   7   3.30803277e+05  2.21390433e+05  9.44e-03 1.67e-01  1.78e-01    12s
   8   3.19802122e+05  2.33691635e+05  7.67e-03 1.21e-01  1.40e-01    13s
   9   3.13392037e+05  2.47877530e+05  6.72e-03 6.96e-02  1.06e-01    13s
  10   3.06926292e+05  2.53507663e+05  5.86e-03 4.91e-02  8.65e-02    14s
  11   3.01354016e+05  2.57888160e+05  5.11e-03 3.25e-02  7.03e-02    14s
  12   2.97651543e+05  2.60818231e+05  4.59e-03 2.13e-02  5.95e-02    15s
  13   2.91002365e+05  2.62490174e+05  3.68e-03 1.50e-02  4.60e-02    15s
  14   2.86496773e+05  2.63643362e+05  3.09e-03 1.08e-02  3.69e-02    16s
  15   2.83226919e+05  2.64414719e+05  2.64e-03 8.24e-03  3.03e-02    16s
  16   2.80270323e+05  2.64959585e+05  2.21e-03 7.23e-03  2.47e-02    17s
  17   2.77646761e+05  2.65512897e+05  1.82e-03 5.49e-03  1.96e-02    18s
  18   2.76247171e+05  2.65826983e+05  1.60e-03 4.43e-03  1.68e-02    18s
  19   2.73939574e+05  2.66132338e+05  1.24e-03 3.31e-03  1.26e-02    19s
  20   2.73113820e+05  2.66427509e+05  1.11e-03 2.41e-03  1.08e-02    19s
  21   2.72116217e+05  2.66606117e+05  9.29e-04 1.87e-03  8.86e-03    20s
  22   2.71366383e+05  2.66727947e+05  7.87e-04 1.54e-03  7.46e-03    20s
  23   2.70603780e+05  2.66822918e+05  6.55e-04 1.21e-03  6.08e-03    21s
  24   2.70066056e+05  2.66888887e+05  5.55e-04 1.03e-03  5.11e-03    21s
  25   2.69602031e+05  2.66982076e+05  4.60e-04 7.97e-04  4.21e-03    21s
  26   2.69328769e+05  2.67018178e+05  4.08e-04 7.24e-04  3.71e-03    22s
  27   2.68806061e+05  2.67073260e+05  3.07e-04 5.74e-04  2.79e-03    22s
  28   2.68644904e+05  2.67128657e+05  2.73e-04 4.40e-04  2.44e-03    23s
  29   2.68463147e+05  2.67151437e+05  2.38e-04 3.80e-04  2.11e-03    23s
  30   2.68363914e+05  2.67176161e+05  2.20e-04 3.31e-04  1.91e-03    24s
  31   2.68201257e+05  2.67193792e+05  1.87e-04 2.96e-04  1.62e-03    24s
  32   2.68050938e+05  2.67211874e+05  1.59e-04 2.60e-04  1.35e-03    24s
  33   2.67920276e+05  2.67223587e+05  1.33e-04 2.31e-04  1.12e-03    25s
  34   2.67786371e+05  2.67240749e+05  1.07e-04 1.84e-04  8.75e-04    25s
  35   2.67697450e+05  2.67252655e+05  8.84e-05 1.63e-04  7.14e-04    26s
  36   2.67644579e+05  2.67261878e+05  7.66e-05 1.47e-04  6.14e-04    26s
  37   2.67575774e+05  2.67272279e+05  6.14e-05 1.20e-04  4.87e-04    27s
  38   2.67507549e+05  2.67276432e+05  4.77e-05 1.05e-04  3.70e-04    27s
  39   2.67473658e+05  2.67281405e+05  3.99e-05 8.81e-05  3.08e-04    27s
  40   2.67433461e+05  2.67287128e+05  3.08e-05 6.81e-05  2.34e-04    28s
  41   2.67421439e+05  2.67288540e+05  2.80e-05 6.44e-05  2.13e-04    28s
  42   2.67396312e+05  2.67291729e+05  2.19e-05 5.34e-05  1.68e-04    29s
  43   2.67393790e+05  2.67293817e+05  2.13e-05 4.70e-05  1.60e-04    29s
  44   2.67376264e+05  2.67296002e+05  1.70e-05 3.69e-05  1.29e-04    29s
  45   2.67365490e+05  2.67299198e+05  1.47e-05 2.78e-05  1.06e-04    30s
  46   2.67351914e+05  2.67301416e+05  1.12e-05 2.02e-05  8.08e-05    30s
  47   2.67343897e+05  2.67303845e+05  9.22e-06 1.38e-05  6.41e-05    31s
  48   2.67337233e+05  2.67305334e+05  7.47e-06 8.94e-06  5.10e-05    31s
  49   2.67328010e+05  2.67305870e+05  5.28e-06 7.27e-06  3.54e-05    31s
  50   2.67321490e+05  2.67306293e+05  3.48e-06 5.88e-06  2.43e-05    32s
  51   2.67317858e+05  2.67306919e+05  2.50e-06 3.94e-06  1.75e-05    32s
  52   2.67315531e+05  2.67307635e+05  1.92e-06 2.15e-06  1.26e-05    33s
  53   2.67313458e+05  2.67307851e+05  1.36e-06 1.63e-06  8.96e-06    33s
  54   2.67311207e+05  2.67308049e+05  7.26e-07 1.19e-06  5.05e-06    33s
  55   2.67310855e+05  2.67308318e+05  6.28e-07 5.94e-07  4.05e-06    34s
  56   2.67310521e+05  2.67308370e+05  5.44e-07 4.80e-07  3.43e-06    34s
  57   2.67310001e+05  2.67308469e+05  4.02e-07 2.57e-07  2.44e-06    34s
  58   2.67309653e+05  2.67308483e+05  3.03e-07 2.24e-07  1.87e-06    35s
  59   2.67309464e+05  2.67308561e+05  2.47e-07 4.87e-08  1.44e-06    35s
  60   2.67309146e+05  2.67308572e+05  1.61e-07 3.55e-08  9.13e-07    35s
  61   2.67308797e+05  2.67308580e+05  5.78e-08 1.75e-07  3.45e-07    36s
  62   2.67308600e+05  2.67308588e+05  2.38e-09 3.98e-08  2.00e-08    36s
  63   2.67308600e+05  2.67308588e+05  4.35e-09 4.07e-08  1.91e-08    36s
  64   2.67308600e+05  2.67308588e+05  1.30e-08 4.06e-08  1.91e-08    36s
  65   2.67308600e+05  2.67308588e+05  1.65e-08 4.05e-08  1.91e-08    37s

Barrier solved model in 65 iterations and 36.79 seconds
Optimal objective 2.67308600e+05


Root crossover log...

   80709 DPushes remaining with DInf 0.0000000e+00                37s
       0 DPushes remaining with DInf 0.0000000e+00                40s

    1192 PPushes remaining with PInf 0.0000000e+00                40s
       0 PPushes remaining with PInf 0.0000000e+00                40s

  Push phase complete: Pinf 0.0000000e+00, Dinf 3.6505607e-09     41s


Root simplex log...

Iteration    Objective       Primal Inf.    Dual Inf.      Time
   18088    2.6730859e+05   0.000000e+00   0.000000e+00     41s
   18088    2.6730859e+05   0.000000e+00   0.000000e+00     41s

Solved with barrier

Root relaxation: objective 2.673086e+05, 18088 iterations, 32.37 seconds

    Nodes    |    Current Node    |     Objective Bounds      |     Work
 Expl Unexpl |  Obj  Depth IntInf | Incumbent    BestBd   Gap | It/Node Time

     0     0 267308.591    0 23676 349364.000 267308.591  23.5%     -   44s
H    0     0                    301410.00000 267308.591  11.3%     -   47s
H    0     0                    292584.00000 267308.591  8.64%     -   50s
     0     0 267308.591    0 23676 292584.000 267308.591  8.64%     -  122s
H    0     0                    284514.00000 267308.591  6.05%     -  141s
H    0     0                    279195.00000 267308.889  4.26%     -  185s
H    0     2                    278307.00000 267308.889  3.95%     -  202s
     0     2 267308.889    0 23676 278307.000 267308.889  3.95%     -  202s

Explored 1 nodes (24142 simplex iterations) in 300.10 seconds
Thread count was 16 (of 16 available processors)

Solution count 6: 278307 279195 284514 ... 349364

Time limit reached
Best objective 2.783070000000e+05, best bound 2.673090000000e+05, gap 3.9518%

User-callback calls 10253, time in user-callback 0.16 sec
['/opt/local/stow/gurobi910/linux64/lib/libgurobi91.so']
Result: runtime=201.89sec; objective=278307
Solution written to /autofs/unityaccount/cremi/mdeboute/Bureau/multi-period-flp/solution/instSingle_I50_J500_T8_1_result.txt
